max_width = 30;
n_blocks = 28;
width = [14, 12, 12, 12, 12, 9, 9, 9, 9, 8, 8, 6, 6, 4, 4, 4, 3, 3, 3, 3, 3, 3, 2, 2, 2, 2, 1, 1];
height = [14, 14, 13, 5, 2, 24, 17, 11, 8, 9, 3, 9, 3, 24, 17, 8, 18, 16, 14, 12, 6, 5, 14, 13, 5, 2, 6, 5];
